NAME lp_typeD_4029
OBJSENSE MAX
ROWS
 N  OBJ
 L  c0      
 L  c1      
 G  c2      
 G  c3      
 L  c_key_upper
 G  c_key_lower
 G  _saboteur_conflict_c_key_upper
COLUMNS
    x0        OBJ       6.9182539689287215e-01
    x0        c0        1.55971569657026
    x0        c1        1.3021364540927243e+00
    x0        c2        7.3105960812601256e-01
    x0        c3        1.4280215466534665e+00
    x0        c_key_upper  1.1500911239805427e+00
    x0        c_key_lower  1.1500911239805427e+00
    x0        _saboteur_conflict_c_key_upper  1.1500911239805427e+00
    x1        OBJ       1.3697061026508779e+00
    x1        c0        8.2592060781192767e-01
    x1        c1        5.0907195544751560e-01
    x1        c2        1.7509611611008227e+00
    x1        c3        1.2854767644553120e+00
    x1        c_key_upper  1.9059764819992044e+00
    x1        c_key_lower  1.9059764819992044e+00
    x1        _saboteur_conflict_c_key_upper  1.9059764819992044e+00
    x2        OBJ       1.04043600525219
    x2        c0        8.8036930180309714e-01
    x2        c1        1.4149067736696153e+00
    x2        c2        1.1732696057585794e+00
    x2        c3        1.9759751450601961e+00
    x2        c_key_upper  1.1122380446014277e+00
    x2        c_key_lower  1.1122380446014277e+00
    x2        _saboteur_conflict_c_key_upper  1.1122380446014277e+00
    x3        OBJ       0.702980035494759
    x3        c0        1.7341646281501308e+00
    x3        c1        9.7301591544401012e-01
    x3        c2        1.3433877976006234e+00
    x3        c3        9.7343666407028262e-01
    x3        c_key_upper  1.6398440419020266e+00
    x3        c_key_lower  1.6398440419020266e+00
    x3        _saboteur_conflict_c_key_upper  1.6398440419020266e+00
    x4        OBJ       1.4735277286528954e+00
    x4        c0        6.3741528520153179e-01
    x4        c1        5.2338219067607827e-01
    x4        c2        1.0809718759252525e+00
    x4        c3        1.4286480642956059e+00
    x4        c_key_upper  1.3033306961593363e+00
    x4        c_key_lower  1.3033306961593363e+00
    x4        _saboteur_conflict_c_key_upper  1.3033306961593363e+00
RHS
    RHS1      c0        3.2113771583261105e+01
    RHS1      c1        2.1451979885937671e+01
    RHS1      c2        6.1951350439118134e+00
    RHS1      c3        7.8845123202425942e+00
    RHS1      c_key_upper  3.5557401943212689e+01
    RHS1      c_key_lower  1.7778700971606344e+01
    RHS1      _saboteur_conflict_c_key_upper  8.1114803886425378e+01
BOUNDS
 UP BND1      x0        10
 UP BND1      x1        10
 UP BND1      x2        10
 UP BND1      x3        10
 UP BND1      x4        10
ENDATA
